37346
1 1 1 1 1 1 1 1 1 1 1 1 1 1 1 1 1 1 1 1 1 1 1 1 1 0 1 1 1 0
19 4 21 8 9 3 8 3 24 15 9 4 0 14 9 2 7 16 5 20 16 16 4 19 17 9 7 22 20 16 4 5 7 3 2 16 7 24 24 10 1 12 12 1 3 17 12 5 22 19 17 14 24 4 17 4 5 5 14 15 17 11 13 20 15 24 5 14 9 10 18 9 2 8 14 15 16 22 3 14 5 5 11 23 20 5 15 2 6 15 9 28 0 8 28 17 2 8 11 3 6 9 19 11 27 7 1 23 13 9 7 1 9 21 7 18 1 19 11 18 20 10 10 13 28 15 14 20 8 2 23 8 12 27 16 26 5 23 14 1 6 17 19 17 6 19 1 8 11 18 8 11 16 27 4 24 0 23 24 17 23 22 19 17 26 0 2 5 19 23 17 14 24 20 23 7 2 18 27 4 20 4 28 22 21 15 27 1 28 20 16 8 26 20 23 10 4 1 27 8